unknown
(model
; cardinality of BoundSet is 2
(declare-sort BoundSet 0)
; rep: @uc_BoundSet_0
; rep: @uc_BoundSet_1
(declare-sort UnboundSet 0)
(define-fun IsInOrange ((BOUND_VARIABLE_380 BoundSet)) Bool true)
(define-fun IsRefutingArguments ((BOUND_VARIABLE_380 BoundSet)) Bool true)
(define-fun LaunchesCounterargument ((BOUND_VARIABLE_392 BoundSet) (BOUND_VARIABLE_393 BoundSet)) Bool false)
)
